n_machines = 2;
n_resources = 4;
n_jobs = 70;
horizon = 33793;
LB = 16896;
n_jobs_per_resource = [18, 17, 19, 16];
duration = [65, 437, 26, 234, 850, 821, 285, 358, 587, 939, 501, 328, 269, 246, 250, 387, 731, 818, 161, 313, 678, 62, 658, 22, 362, 335, 888, 705, 529, 186, 277, 511, 306, 319, 74, 426, 190, 289, 312, 727, 631, 17, 222, 389, 516, 491, 255, 969, 917, 64, 759, 455, 704, 698, 882, 170, 278, 446, 753, 981, 446, 668, 626, 922, 691, 826, 442, 231, 900, 982]